results/x-long/X-n134-k13.vrp_seed-27.vrp.sol
Route #1: 83 38 50 35 26 74 87 78
Route #2: 31 92 1 69 49 117 64 48 127
Route #3: 118 91 51 16 14 60 95
Route #4: 132 109 17 19 130 80 115 125 128
Route #5: 56 123 110 54 32 62 10 103
Route #6: 112 79 43 36 111 120 71 61 29
Route #7: 58 34 41 105 25 113 89 116 129
Route #8: 3 72 86 33 124 12 133 82 76
Route #9: 85 106 45 21 46 99 104 57 119
Route #10: 47 9 2 39 73 18 96 59
Route #11: 108 6 97 5 121 7 68 30 8 44 67 20 126 55 22 27 4 70 107 84 81 15 63 13
Route #12: 100 122 11 114 131 101 52 40
Route #13: 24 37 88 102 94 93 42 65 28 75 98 23 77 53 66 90
Cost 10916.000000